LengthSchedulingHorizon=4556;
nAttributes=5;
SetupCosts=[[0, 0, 0, 0, 0], [25, 25, 25, 25, 25], [25, 25, 25, 25, 25], [25, 25, 25, 25, 25], [25, 25, 25, 25, 25], [25, 25, 25, 25, 25]];
SetupTimes=[[0, 0, 0, 0, 0], [15, 15, 15, 15, 15], [15, 15, 15, 15, 15], [15, 15, 15, 15, 15], [15, 15, 15, 15, 15], [15, 15, 15, 15, 15]];
nMachines=2;
MinCap=[0, 0];
MaxCap=[15, 6];

initState=[2, 4];
nShifts=4;
ShiftStartTimes = [[300, 1366, 2064, 2922], [0, 903, 2367, 2542]];
ShiftEndTimes = [[1114, 1913, 2777, 4310], [0, 2070, 2499, 4236]];
nJobs=50;
EligibleMachines = [{1, 2}, {1}, {1, 2}, {1, 2}, {1}, {1, 2}, {1, 2}, {2}, {1, 2}, {1}, {2}, {2}, {1, 2}, {1}, {1, 2}, {2}, {1, 2}, {1}, {2}, {1, 2}, {2}, {1, 2}, {1, 2}, {1, 2}, {1}, {1}, {2}, {1, 2}, {1, 2}, {2}, {1}, {1, 2}, {1, 2}, {1, 2}, {1, 2}, {1, 2}, {2}, {2}, {1, 2}, {2}, {1}, {1, 2}, {1}, {2}, {1}, {1}, {2}, {1}, {1}, {1}];
EarliestStart=[83, 72, 99, 68, 165, 169, 12, 166, 32, 50, 72, 224, 118, 152, 227, 107, 52, 99, 2, 162, 227, 32, 144, 177, 58, 238, 122, 213, 217, 41, 238, 90, 79, 186, 145, 118, 241, 55, 214, 156, 205, 137, 228, 221, 29, 199, 240, 211, 48, 53];
LatestEnd=[199, 75, 131, 150, 191, 257, 153, 201, 94, 182, 217, 328, 219, 188, 285, 125, 71, 226, 16, 308, 273, 142, 292, 265, 101, 356, 166, 338, 358, 156, 329, 150, 174, 263, 177, 283, 274, 62, 224, 223, 304, 181, 281, 235, 133, 231, 241, 299, 130, 57];
MinTime=[63, 2, 18, 48, 17, 52, 85, 26, 53, 68, 80, 71, 92, 32, 53, 13, 18, 67, 12, 93, 39, 95, 97, 52, 35, 96, 23, 95, 78, 92, 77, 37, 50, 52, 31, 88, 22, 5, 9, 41, 70, 44, 46, 11, 65, 18, 1, 87, 63, 4];
MaxTime=[100, 100, 100, 100, 100, 100, 100, 100, 100, 100, 100, 100, 100, 100, 100, 100, 100, 100, 100, 100, 100, 100, 100, 100, 100, 100, 100, 100, 100, 100, 100, 100, 100, 100, 100, 100, 100, 100, 100, 100, 100, 100, 100, 100, 100, 100, 100, 100, 100, 100];
JobSize=[5, 1, 5, 1, 2, 3, 4, 4, 1, 4, 4, 1, 4, 4, 4, 5, 3, 5, 5, 3, 4, 1, 5, 2, 3, 2, 1, 4, 2, 4, 3, 1, 1, 5, 1, 3, 3, 5, 2, 4, 3, 1, 1, 1, 1, 5, 2, 3, 4, 4];
Attribute=[1, 4, 2, 3, 5, 3, 1, 2, 3, 1, 4, 4, 4, 5, 4, 2, 2, 2, 2, 5, 4, 3, 1, 5, 4, 5, 1, 2, 1, 4, 1, 2, 3, 1, 2, 1, 1, 4, 2, 1, 1, 1, 3, 1, 3, 3, 1, 1, 1, 1];

upper_bound_integer_objective=37500;
mult_factor_total_runtime=6;
mult_factor_finished_toolate=300;
mult_factor_total_setuptimes=0;
mult_factor_total_setupcosts=6;
running_time_bound=2486;
min_duration=1;
max_duration=97;
max_setup_time=15;
max_setup_cost=25;
